logs/drand/max/drand-10-075-0.lp
\ LP format - for model browsing. Use MPS format to capture full model detail.
Maximize
  x0,1_4 + x0,1_6 + x0,1_8 + x0,1_25 + x0,1_33 + x0,1_47 + x0,1_53 + x0,1_62
   + x0,1_68 + x0,1_72 + x0,2_4 + x0,2_6 + x0,2_8 + x0,2_25 + x0,2_33
   + x0,2_47 + x0,2_53 + x0,2_62 + x0,2_68 + x0,2_72 + x0,3_4 + x0,3_6
   + x0,3_8 + x0,3_25 + x0,3_33 + x0,3_47 + x0,3_53 + x0,3_62 + x0,3_68
   + x0,3_72 + x0,4_4 + x0,4_6 + x0,4_8 + x0,4_25 + x0,4_33 + x0,4_47
   + x0,4_53 + x0,4_62 + x0,4_68 + x0,4_72 + x0,5_4 + x0,5_6 + x0,5_8
   + x0,5_25 + x0,5_33 + x0,5_47 + x0,5_53 + x0,5_62 + x0,5_68 + x0,5_72
   + x0,6_4 + x0,6_6 + x0,6_8 + x0,6_25 + x0,6_33 + x0,6_47 + x0,6_53
   + x0,6_62 + x0,6_68 + x0,6_72 + x1,2_4 + x1,2_6 + x1,2_8 + x1,2_25
   + x1,2_33 + x1,2_47 + x1,2_53 + x1,2_62 + x1,2_68 + x1,2_72 + x1,3_4
   + x1,3_6 + x1,3_8 + x1,3_25 + x1,3_33 + x1,3_47 + x1,3_53 + x1,3_62
   + x1,3_68 + x1,3_72 + x1,4_4 + x1,4_6 + x1,4_8 + x1,4_25 + x1,4_33
   + x1,4_47 + x1,4_53 + x1,4_62 + x1,4_68 + x1,4_72 + x1,5_4 + x1,5_6
   + x1,5_8 + x1,5_25 + x1,5_33 + x1,5_47 + x1,5_53 + x1,5_62 + x1,5_68
   + x1,5_72 + x1,6_4 + x1,6_6 + x1,6_8 + x1,6_25 + x1,6_33 + x1,6_47
   + x1,6_53 + x1,6_62 + x1,6_68 + x1,6_72 + x2,3_4 + x2,3_6 + x2,3_8
   + x2,3_25 + x2,3_33 + x2,3_47 + x2,3_53 + x2,3_62 + x2,3_68 + x2,3_72
   + x2,4_4 + x2,4_6 + x2,4_8 + x2,4_25 + x2,4_33 + x2,4_47 + x2,4_53
   + x2,4_62 + x2,4_68 + x2,4_72 + x2,5_4 + x2,5_6 + x2,5_8 + x2,5_25
   + x2,5_33 + x2,5_47 + x2,5_53 + x2,5_62 + x2,5_68 + x2,5_72 + x2,6_4
   + x2,6_6 + x2,6_8 + x2,6_25 + x2,6_33 + x2,6_47 + x2,6_53 + x2,6_62
   + x2,6_68 + x2,6_72 + x3,4_4 + x3,4_6 + x3,4_8 + x3,4_25 + x3,4_33
   + x3,4_47 + x3,4_53 + x3,4_62 + x3,4_68 + x3,4_72 + x3,5_4 + x3,5_6
   + x3,5_8 + x3,5_25 + x3,5_33 + x3,5_47 + x3,5_53 + x3,5_62 + x3,5_68
   + x3,5_72 + x3,6_4 + x3,6_6 + x3,6_8 + x3,6_25 + x3,6_33 + x3,6_47
   + x3,6_53 + x3,6_62 + x3,6_68 + x3,6_72 + x4,5_4 + x4,5_6 + x4,5_8
   + x4,5_25 + x4,5_33 + x4,5_47 + x4,5_53 + x4,5_62 + x4,5_68 + x4,5_72
   + x4,6_4 + x4,6_6 + x4,6_8 + x4,6_25 + x4,6_33 + x4,6_47 + x4,6_53
   + x4,6_62 + x4,6_68 + x4,6_72 + x5,6_4 + x5,6_6 + x5,6_8 + x5,6_25
   + x5,6_33 + x5,6_47 + x5,6_53 + x5,6_62 + x5,6_68 + x5,6_72
Subject To
 R0: x0,1_4 + x0,2_4 + x0,3_4 + x0,4_4 + x0,5_4 + x0,6_4 + x1,2_4 + x1,3_4
   + x1,4_4 + x1,5_4 + x1,6_4 + x2,3_4 + x2,4_4 + x2,5_4 + x2,6_4 + x3,4_4
   + x3,5_4 + x3,6_4 + x4,5_4 + x4,6_4 + x5,6_4 <= 1
 R1: x0,1_6 + x0,2_6 + x0,3_6 + x0,4_6 + x0,5_6 + x0,6_6 + x1,2_6 + x1,3_6
   + x1,4_6 + x1,5_6 + x1,6_6 + x2,3_6 + x2,4_6 + x2,5_6 + x2,6_6 + x3,4_6
   + x3,5_6 + x3,6_6 + x4,5_6 + x4,6_6 + x5,6_6 <= 1
 R2: x0,1_8 + x0,2_8 + x0,3_8 + x0,4_8 + x0,5_8 + x0,6_8 + x1,2_8 + x1,3_8
   + x1,4_8 + x1,5_8 + x1,6_8 + x2,3_8 + x2,4_8 + x2,5_8 + x2,6_8 + x3,4_8
   + x3,5_8 + x3,6_8 + x4,5_8 + x4,6_8 + x5,6_8 <= 1
 R3: x0,1_25 + x0,2_25 + x0,3_25 + x0,4_25 + x0,5_25 + x0,6_25 + x1,2_25
   + x1,3_25 + x1,4_25 + x1,5_25 + x1,6_25 + x2,3_25 + x2,4_25 + x2,5_25
   + x2,6_25 + x3,4_25 + x3,5_25 + x3,6_25 + x4,5_25 + x4,6_25 + x5,6_25
   <= 1
 R4: x0,1_33 + x0,2_33 + x0,3_33 + x0,4_33 + x0,5_33 + x0,6_33 + x1,2_33
   + x1,3_33 + x1,4_33 + x1,5_33 + x1,6_33 + x2,3_33 + x2,4_33 + x2,5_33
   + x2,6_33 + x3,4_33 + x3,5_33 + x3,6_33 + x4,5_33 + x4,6_33 + x5,6_33
   <= 1
 R5: x0,1_47 + x0,2_47 + x0,3_47 + x0,4_47 + x0,5_47 + x0,6_47 + x1,2_47
   + x1,3_47 + x1,4_47 + x1,5_47 + x1,6_47 + x2,3_47 + x2,4_47 + x2,5_47
   + x2,6_47 + x3,4_47 + x3,5_47 + x3,6_47 + x4,5_47 + x4,6_47 + x5,6_47
   <= 1
 R6: x0,1_53 + x0,2_53 + x0,3_53 + x0,4_53 + x0,5_53 + x0,6_53 + x1,2_53
   + x1,3_53 + x1,4_53 + x1,5_53 + x1,6_53 + x2,3_53 + x2,4_53 + x2,5_53
   + x2,6_53 + x3,4_53 + x3,5_53 + x3,6_53 + x4,5_53 + x4,6_53 + x5,6_53
   <= 1
 R7: x0,1_62 + x0,2_62 + x0,3_62 + x0,4_62 + x0,5_62 + x0,6_62 + x1,2_62
   + x1,3_62 + x1,4_62 + x1,5_62 + x1,6_62 + x2,3_62 + x2,4_62 + x2,5_62
   + x2,6_62 + x3,4_62 + x3,5_62 + x3,6_62 + x4,5_62 + x4,6_62 + x5,6_62
   <= 1
 R8: x0,1_68 + x0,2_68 + x0,3_68 + x0,4_68 + x0,5_68 + x0,6_68 + x1,2_68
   + x1,3_68 + x1,4_68 + x1,5_68 + x1,6_68 + x2,3_68 + x2,4_68 + x2,5_68
   + x2,6_68 + x3,4_68 + x3,5_68 + x3,6_68 + x4,5_68 + x4,6_68 + x5,6_68
   <= 1
 R9: x0,1_72 + x0,2_72 + x0,3_72 + x0,4_72 + x0,5_72 + x0,6_72 + x1,2_72
   + x1,3_72 + x1,4_72 + x1,5_72 + x1,6_72 + x2,3_72 + x2,4_72 + x2,5_72
   + x2,6_72 + x3,4_72 + x3,5_72 + x3,6_72 + x4,5_72 + x4,6_72 + x5,6_72
   <= 1
 R10: x0,1_4 + x0,1_6 + x0,1_8 + x0,1_25 + x0,1_33 + x0,1_47 + x0,1_53
   + x0,1_62 + x0,1_68 + x0,1_72 <= 1
 R11: x0,2_4 + x0,2_6 + x0,2_8 + x0,2_25 + x0,2_33 + x0,2_47 + x0,2_53
   + x0,2_62 + x0,2_68 + x0,2_72 <= 1
 R12: x0,3_4 + x0,3_6 + x0,3_8 + x0,3_25 + x0,3_33 + x0,3_47 + x0,3_53
   + x0,3_62 + x0,3_68 + x0,3_72 <= 1
 R13: x0,4_4 + x0,4_6 + x0,4_8 + x0,4_25 + x0,4_33 + x0,4_47 + x0,4_53
   + x0,4_62 + x0,4_68 + x0,4_72 <= 1
 R14: x0,5_4 + x0,5_6 + x0,5_8 + x0,5_25 + x0,5_33 + x0,5_47 + x0,5_53
   + x0,5_62 + x0,5_68 + x0,5_72 <= 1
 R15: x0,6_4 + x0,6_6 + x0,6_8 + x0,6_25 + x0,6_33 + x0,6_47 + x0,6_53
   + x0,6_62 + x0,6_68 + x0,6_72 <= 1
 R16: x1,2_4 + x1,2_6 + x1,2_8 + x1,2_25 + x1,2_33 + x1,2_47 + x1,2_53
   + x1,2_62 + x1,2_68 + x1,2_72 <= 1
 R17: x1,3_4 + x1,3_6 + x1,3_8 + x1,3_25 + x1,3_33 + x1,3_47 + x1,3_53
   + x1,3_62 + x1,3_68 + x1,3_72 <= 1
 R18: x1,4_4 + x1,4_6 + x1,4_8 + x1,4_25 + x1,4_33 + x1,4_47 + x1,4_53
   + x1,4_62 + x1,4_68 + x1,4_72 <= 1
 R19: x1,5_4 + x1,5_6 + x1,5_8 + x1,5_25 + x1,5_33 + x1,5_47 + x1,5_53
   + x1,5_62 + x1,5_68 + x1,5_72 <= 1
 R20: x1,6_4 + x1,6_6 + x1,6_8 + x1,6_25 + x1,6_33 + x1,6_47 + x1,6_53
   + x1,6_62 + x1,6_68 + x1,6_72 <= 1
 R21: x2,3_4 + x2,3_6 + x2,3_8 + x2,3_25 + x2,3_33 + x2,3_47 + x2,3_53
   + x2,3_62 + x2,3_68 + x2,3_72 <= 1
 R22: x2,4_4 + x2,4_6 + x2,4_8 + x2,4_25 + x2,4_33 + x2,4_47 + x2,4_53
   + x2,4_62 + x2,4_68 + x2,4_72 <= 1
 R23: x2,5_4 + x2,5_6 + x2,5_8 + x2,5_25 + x2,5_33 + x2,5_47 + x2,5_53
   + x2,5_62 + x2,5_68 + x2,5_72 <= 1
 R24: x2,6_4 + x2,6_6 + x2,6_8 + x2,6_25 + x2,6_33 + x2,6_47 + x2,6_53
   + x2,6_62 + x2,6_68 + x2,6_72 <= 1
 R25: x3,4_4 + x3,4_6 + x3,4_8 + x3,4_25 + x3,4_33 + x3,4_47 + x3,4_53
   + x3,4_62 + x3,4_68 + x3,4_72 <= 1
 R26: x3,5_4 + x3,5_6 + x3,5_8 + x3,5_25 + x3,5_33 + x3,5_47 + x3,5_53
   + x3,5_62 + x3,5_68 + x3,5_72 <= 1
 R27: x3,6_4 + x3,6_6 + x3,6_8 + x3,6_25 + x3,6_33 + x3,6_47 + x3,6_53
   + x3,6_62 + x3,6_68 + x3,6_72 <= 1
 R28: x4,5_4 + x4,5_6 + x4,5_8 + x4,5_25 + x4,5_33 + x4,5_47 + x4,5_53
   + x4,5_62 + x4,5_68 + x4,5_72 <= 1
 R29: x4,6_4 + x4,6_6 + x4,6_8 + x4,6_25 + x4,6_33 + x4,6_47 + x4,6_53
   + x4,6_62 + x4,6_68 + x4,6_72 <= 1
 R30: x5,6_4 + x5,6_6 + x5,6_8 + x5,6_25 + x5,6_33 + x5,6_47 + x5,6_53
   + x5,6_62 + x5,6_68 + x5,6_72 <= 1
 R31: p0 - p1 <= -1
 R32: - 4 x0,1_4 - p0 + p1 >= 0
 R33: 378 x0,1_4 - p0 + p1 <= 382
 R34: - 6 x0,1_6 - p0 + p1 >= 0
 R35: 378 x0,1_6 - p0 + p1 <= 384
 R36: - 8 x0,1_8 - p0 + p1 >= 0
 R37: 378 x0,1_8 - p0 + p1 <= 386
 R38: - 25 x0,1_25 - p0 + p1 >= 0
 R39: 378 x0,1_25 - p0 + p1 <= 403
 R40: - 33 x0,1_33 - p0 + p1 >= 0
 R41: 378 x0,1_33 - p0 + p1 <= 411
 R42: - 47 x0,1_47 - p0 + p1 >= 0
 R43: 378 x0,1_47 - p0 + p1 <= 425
 R44: - 53 x0,1_53 - p0 + p1 >= 0
 R45: 378 x0,1_53 - p0 + p1 <= 431
 R46: - 62 x0,1_62 - p0 + p1 >= 0
 R47: 378 x0,1_62 - p0 + p1 <= 440
 R48: - 68 x0,1_68 - p0 + p1 >= 0
 R49: 378 x0,1_68 - p0 + p1 <= 446
 R50: - 72 x0,1_72 - p0 + p1 >= 0
 R51: 378 x0,1_72 - p0 + p1 <= 450
 R52: p0 - p2 <= -1
 R53: - 4 x0,2_4 - p0 + p2 >= 0
 R54: 378 x0,2_4 - p0 + p2 <= 382
 R55: - 6 x0,2_6 - p0 + p2 >= 0
 R56: 378 x0,2_6 - p0 + p2 <= 384
 R57: - 8 x0,2_8 - p0 + p2 >= 0
 R58: 378 x0,2_8 - p0 + p2 <= 386
 R59: - 25 x0,2_25 - p0 + p2 >= 0
 R60: 378 x0,2_25 - p0 + p2 <= 403
 R61: - 33 x0,2_33 - p0 + p2 >= 0
 R62: 378 x0,2_33 - p0 + p2 <= 411
 R63: - 47 x0,2_47 - p0 + p2 >= 0
 R64: 378 x0,2_47 - p0 + p2 <= 425
 R65: - 53 x0,2_53 - p0 + p2 >= 0
 R66: 378 x0,2_53 - p0 + p2 <= 431
 R67: - 62 x0,2_62 - p0 + p2 >= 0
 R68: 378 x0,2_62 - p0 + p2 <= 440
 R69: - 68 x0,2_68 - p0 + p2 >= 0
 R70: 378 x0,2_68 - p0 + p2 <= 446
 R71: - 72 x0,2_72 - p0 + p2 >= 0
 R72: 378 x0,2_72 - p0 + p2 <= 450
 R73: p0 - p3 <= -1
 R74: - 4 x0,3_4 - p0 + p3 >= 0
 R75: 378 x0,3_4 - p0 + p3 <= 382
 R76: - 6 x0,3_6 - p0 + p3 >= 0
 R77: 378 x0,3_6 - p0 + p3 <= 384
 R78: - 8 x0,3_8 - p0 + p3 >= 0
 R79: 378 x0,3_8 - p0 + p3 <= 386
 R80: - 25 x0,3_25 - p0 + p3 >= 0
 R81: 378 x0,3_25 - p0 + p3 <= 403
 R82: - 33 x0,3_33 - p0 + p3 >= 0
 R83: 378 x0,3_33 - p0 + p3 <= 411
 R84: - 47 x0,3_47 - p0 + p3 >= 0
 R85: 378 x0,3_47 - p0 + p3 <= 425
 R86: - 53 x0,3_53 - p0 + p3 >= 0
 R87: 378 x0,3_53 - p0 + p3 <= 431
 R88: - 62 x0,3_62 - p0 + p3 >= 0
 R89: 378 x0,3_62 - p0 + p3 <= 440
 R90: - 68 x0,3_68 - p0 + p3 >= 0
 R91: 378 x0,3_68 - p0 + p3 <= 446
 R92: - 72 x0,3_72 - p0 + p3 >= 0
 R93: 378 x0,3_72 - p0 + p3 <= 450
 R94: p0 - p4 <= -1
 R95: - 4 x0,4_4 - p0 + p4 >= 0
 R96: 378 x0,4_4 - p0 + p4 <= 382
 R97: - 6 x0,4_6 - p0 + p4 >= 0
 R98: 378 x0,4_6 - p0 + p4 <= 384
 R99: - 8 x0,4_8 - p0 + p4 >= 0
 R100: 378 x0,4_8 - p0 + p4 <= 386
 R101: - 25 x0,4_25 - p0 + p4 >= 0
 R102: 378 x0,4_25 - p0 + p4 <= 403
 R103: - 33 x0,4_33 - p0 + p4 >= 0
 R104: 378 x0,4_33 - p0 + p4 <= 411
 R105: - 47 x0,4_47 - p0 + p4 >= 0
 R106: 378 x0,4_47 - p0 + p4 <= 425
 R107: - 53 x0,4_53 - p0 + p4 >= 0
 R108: 378 x0,4_53 - p0 + p4 <= 431
 R109: - 62 x0,4_62 - p0 + p4 >= 0
 R110: 378 x0,4_62 - p0 + p4 <= 440
 R111: - 68 x0,4_68 - p0 + p4 >= 0
 R112: 378 x0,4_68 - p0 + p4 <= 446
 R113: - 72 x0,4_72 - p0 + p4 >= 0
 R114: 378 x0,4_72 - p0 + p4 <= 450
 R115: p0 - p5 <= -1
 R116: - 4 x0,5_4 - p0 + p5 >= 0
 R117: 378 x0,5_4 - p0 + p5 <= 382
 R118: - 6 x0,5_6 - p0 + p5 >= 0
 R119: 378 x0,5_6 - p0 + p5 <= 384
 R120: - 8 x0,5_8 - p0 + p5 >= 0
 R121: 378 x0,5_8 - p0 + p5 <= 386
 R122: - 25 x0,5_25 - p0 + p5 >= 0
 R123: 378 x0,5_25 - p0 + p5 <= 403
 R124: - 33 x0,5_33 - p0 + p5 >= 0
 R125: 378 x0,5_33 - p0 + p5 <= 411
 R126: - 47 x0,5_47 - p0 + p5 >= 0
 R127: 378 x0,5_47 - p0 + p5 <= 425
 R128: - 53 x0,5_53 - p0 + p5 >= 0
 R129: 378 x0,5_53 - p0 + p5 <= 431
 R130: - 62 x0,5_62 - p0 + p5 >= 0
 R131: 378 x0,5_62 - p0 + p5 <= 440
 R132: - 68 x0,5_68 - p0 + p5 >= 0
 R133: 378 x0,5_68 - p0 + p5 <= 446
 R134: - 72 x0,5_72 - p0 + p5 >= 0
 R135: 378 x0,5_72 - p0 + p5 <= 450
 R136: p0 - p6 <= -1
 R137: - 4 x0,6_4 - p0 + p6 >= 0
 R138: 378 x0,6_4 - p0 + p6 <= 382
 R139: - 6 x0,6_6 - p0 + p6 >= 0
 R140: 378 x0,6_6 - p0 + p6 <= 384
 R141: - 8 x0,6_8 - p0 + p6 >= 0
 R142: 378 x0,6_8 - p0 + p6 <= 386
 R143: - 25 x0,6_25 - p0 + p6 >= 0
 R144: 378 x0,6_25 - p0 + p6 <= 403
 R145: - 33 x0,6_33 - p0 + p6 >= 0
 R146: 378 x0,6_33 - p0 + p6 <= 411
 R147: - 47 x0,6_47 - p0 + p6 >= 0
 R148: 378 x0,6_47 - p0 + p6 <= 425
 R149: - 53 x0,6_53 - p0 + p6 >= 0
 R150: 378 x0,6_53 - p0 + p6 <= 431
 R151: - 62 x0,6_62 - p0 + p6 >= 0
 R152: 378 x0,6_62 - p0 + p6 <= 440
 R153: - 68 x0,6_68 - p0 + p6 >= 0
 R154: 378 x0,6_68 - p0 + p6 <= 446
 R155: - 72 x0,6_72 - p0 + p6 >= 0
 R156: 378 x0,6_72 - p0 + p6 <= 450
 R157: p1 - p2 <= -1
 R158: - 4 x1,2_4 - p1 + p2 >= 0
 R159: 378 x1,2_4 - p1 + p2 <= 382
 R160: - 6 x1,2_6 - p1 + p2 >= 0
 R161: 378 x1,2_6 - p1 + p2 <= 384
 R162: - 8 x1,2_8 - p1 + p2 >= 0
 R163: 378 x1,2_8 - p1 + p2 <= 386
 R164: - 25 x1,2_25 - p1 + p2 >= 0
 R165: 378 x1,2_25 - p1 + p2 <= 403
 R166: - 33 x1,2_33 - p1 + p2 >= 0
 R167: 378 x1,2_33 - p1 + p2 <= 411
 R168: - 47 x1,2_47 - p1 + p2 >= 0
 R169: 378 x1,2_47 - p1 + p2 <= 425
 R170: - 53 x1,2_53 - p1 + p2 >= 0
 R171: 378 x1,2_53 - p1 + p2 <= 431
 R172: - 62 x1,2_62 - p1 + p2 >= 0
 R173: 378 x1,2_62 - p1 + p2 <= 440
 R174: - 68 x1,2_68 - p1 + p2 >= 0
 R175: 378 x1,2_68 - p1 + p2 <= 446
 R176: - 72 x1,2_72 - p1 + p2 >= 0
 R177: 378 x1,2_72 - p1 + p2 <= 450
 R178: p1 - p3 <= -1
 R179: - 4 x1,3_4 - p1 + p3 >= 0
 R180: 378 x1,3_4 - p1 + p3 <= 382
 R181: - 6 x1,3_6 - p1 + p3 >= 0
 R182: 378 x1,3_6 - p1 + p3 <= 384
 R183: - 8 x1,3_8 - p1 + p3 >= 0
 R184: 378 x1,3_8 - p1 + p3 <= 386
 R185: - 25 x1,3_25 - p1 + p3 >= 0
 R186: 378 x1,3_25 - p1 + p3 <= 403
 R187: - 33 x1,3_33 - p1 + p3 >= 0
 R188: 378 x1,3_33 - p1 + p3 <= 411
 R189: - 47 x1,3_47 - p1 + p3 >= 0
 R190: 378 x1,3_47 - p1 + p3 <= 425
 R191: - 53 x1,3_53 - p1 + p3 >= 0
 R192: 378 x1,3_53 - p1 + p3 <= 431
 R193: - 62 x1,3_62 - p1 + p3 >= 0
 R194: 378 x1,3_62 - p1 + p3 <= 440
 R195: - 68 x1,3_68 - p1 + p3 >= 0
 R196: 378 x1,3_68 - p1 + p3 <= 446
 R197: - 72 x1,3_72 - p1 + p3 >= 0
 R198: 378 x1,3_72 - p1 + p3 <= 450
 R199: p1 - p4 <= -1
 R200: - 4 x1,4_4 - p1 + p4 >= 0
 R201: 378 x1,4_4 - p1 + p4 <= 382
 R202: - 6 x1,4_6 - p1 + p4 >= 0
 R203: 378 x1,4_6 - p1 + p4 <= 384
 R204: - 8 x1,4_8 - p1 + p4 >= 0
 R205: 378 x1,4_8 - p1 + p4 <= 386
 R206: - 25 x1,4_25 - p1 + p4 >= 0
 R207: 378 x1,4_25 - p1 + p4 <= 403
 R208: - 33 x1,4_33 - p1 + p4 >= 0
 R209: 378 x1,4_33 - p1 + p4 <= 411
 R210: - 47 x1,4_47 - p1 + p4 >= 0
 R211: 378 x1,4_47 - p1 + p4 <= 425
 R212: - 53 x1,4_53 - p1 + p4 >= 0
 R213: 378 x1,4_53 - p1 + p4 <= 431
 R214: - 62 x1,4_62 - p1 + p4 >= 0
 R215: 378 x1,4_62 - p1 + p4 <= 440
 R216: - 68 x1,4_68 - p1 + p4 >= 0
 R217: 378 x1,4_68 - p1 + p4 <= 446
 R218: - 72 x1,4_72 - p1 + p4 >= 0
 R219: 378 x1,4_72 - p1 + p4 <= 450
 R220: p1 - p5 <= -1
 R221: - 4 x1,5_4 - p1 + p5 >= 0
 R222: 378 x1,5_4 - p1 + p5 <= 382
 R223: - 6 x1,5_6 - p1 + p5 >= 0
 R224: 378 x1,5_6 - p1 + p5 <= 384
 R225: - 8 x1,5_8 - p1 + p5 >= 0
 R226: 378 x1,5_8 - p1 + p5 <= 386
 R227: - 25 x1,5_25 - p1 + p5 >= 0
 R228: 378 x1,5_25 - p1 + p5 <= 403
 R229: - 33 x1,5_33 - p1 + p5 >= 0
 R230: 378 x1,5_33 - p1 + p5 <= 411
 R231: - 47 x1,5_47 - p1 + p5 >= 0
 R232: 378 x1,5_47 - p1 + p5 <= 425
 R233: - 53 x1,5_53 - p1 + p5 >= 0
 R234: 378 x1,5_53 - p1 + p5 <= 431
 R235: - 62 x1,5_62 - p1 + p5 >= 0
 R236: 378 x1,5_62 - p1 + p5 <= 440
 R237: - 68 x1,5_68 - p1 + p5 >= 0
 R238: 378 x1,5_68 - p1 + p5 <= 446
 R239: - 72 x1,5_72 - p1 + p5 >= 0
 R240: 378 x1,5_72 - p1 + p5 <= 450
 R241: p1 - p6 <= -1
 R242: - 4 x1,6_4 - p1 + p6 >= 0
 R243: 378 x1,6_4 - p1 + p6 <= 382
 R244: - 6 x1,6_6 - p1 + p6 >= 0
 R245: 378 x1,6_6 - p1 + p6 <= 384
 R246: - 8 x1,6_8 - p1 + p6 >= 0
 R247: 378 x1,6_8 - p1 + p6 <= 386
 R248: - 25 x1,6_25 - p1 + p6 >= 0
 R249: 378 x1,6_25 - p1 + p6 <= 403
 R250: - 33 x1,6_33 - p1 + p6 >= 0
 R251: 378 x1,6_33 - p1 + p6 <= 411
 R252: - 47 x1,6_47 - p1 + p6 >= 0
 R253: 378 x1,6_47 - p1 + p6 <= 425
 R254: - 53 x1,6_53 - p1 + p6 >= 0
 R255: 378 x1,6_53 - p1 + p6 <= 431
 R256: - 62 x1,6_62 - p1 + p6 >= 0
 R257: 378 x1,6_62 - p1 + p6 <= 440
 R258: - 68 x1,6_68 - p1 + p6 >= 0
 R259: 378 x1,6_68 - p1 + p6 <= 446
 R260: - 72 x1,6_72 - p1 + p6 >= 0
 R261: 378 x1,6_72 - p1 + p6 <= 450
 R262: p2 - p3 <= -1
 R263: - 4 x2,3_4 - p2 + p3 >= 0
 R264: 378 x2,3_4 - p2 + p3 <= 382
 R265: - 6 x2,3_6 - p2 + p3 >= 0
 R266: 378 x2,3_6 - p2 + p3 <= 384
 R267: - 8 x2,3_8 - p2 + p3 >= 0
 R268: 378 x2,3_8 - p2 + p3 <= 386
 R269: - 25 x2,3_25 - p2 + p3 >= 0
 R270: 378 x2,3_25 - p2 + p3 <= 403
 R271: - 33 x2,3_33 - p2 + p3 >= 0
 R272: 378 x2,3_33 - p2 + p3 <= 411
 R273: - 47 x2,3_47 - p2 + p3 >= 0
 R274: 378 x2,3_47 - p2 + p3 <= 425
 R275: - 53 x2,3_53 - p2 + p3 >= 0
 R276: 378 x2,3_53 - p2 + p3 <= 431
 R277: - 62 x2,3_62 - p2 + p3 >= 0
 R278: 378 x2,3_62 - p2 + p3 <= 440
 R279: - 68 x2,3_68 - p2 + p3 >= 0
 R280: 378 x2,3_68 - p2 + p3 <= 446
 R281: - 72 x2,3_72 - p2 + p3 >= 0
 R282: 378 x2,3_72 - p2 + p3 <= 450
 R283: p2 - p4 <= -1
 R284: - 4 x2,4_4 - p2 + p4 >= 0
 R285: 378 x2,4_4 - p2 + p4 <= 382
 R286: - 6 x2,4_6 - p2 + p4 >= 0
 R287: 378 x2,4_6 - p2 + p4 <= 384
 R288: - 8 x2,4_8 - p2 + p4 >= 0
 R289: 378 x2,4_8 - p2 + p4 <= 386
 R290: - 25 x2,4_25 - p2 + p4 >= 0
 R291: 378 x2,4_25 - p2 + p4 <= 403
 R292: - 33 x2,4_33 - p2 + p4 >= 0
 R293: 378 x2,4_33 - p2 + p4 <= 411
 R294: - 47 x2,4_47 - p2 + p4 >= 0
 R295: 378 x2,4_47 - p2 + p4 <= 425
 R296: - 53 x2,4_53 - p2 + p4 >= 0
 R297: 378 x2,4_53 - p2 + p4 <= 431
 R298: - 62 x2,4_62 - p2 + p4 >= 0
 R299: 378 x2,4_62 - p2 + p4 <= 440
 R300: - 68 x2,4_68 - p2 + p4 >= 0
 R301: 378 x2,4_68 - p2 + p4 <= 446
 R302: - 72 x2,4_72 - p2 + p4 >= 0
 R303: 378 x2,4_72 - p2 + p4 <= 450
 R304: p2 - p5 <= -1
 R305: - 4 x2,5_4 - p2 + p5 >= 0
 R306: 378 x2,5_4 - p2 + p5 <= 382
 R307: - 6 x2,5_6 - p2 + p5 >= 0
 R308: 378 x2,5_6 - p2 + p5 <= 384
 R309: - 8 x2,5_8 - p2 + p5 >= 0
 R310: 378 x2,5_8 - p2 + p5 <= 386
 R311: - 25 x2,5_25 - p2 + p5 >= 0
 R312: 378 x2,5_25 - p2 + p5 <= 403
 R313: - 33 x2,5_33 - p2 + p5 >= 0
 R314: 378 x2,5_33 - p2 + p5 <= 411
 R315: - 47 x2,5_47 - p2 + p5 >= 0
 R316: 378 x2,5_47 - p2 + p5 <= 425
 R317: - 53 x2,5_53 - p2 + p5 >= 0
 R318: 378 x2,5_53 - p2 + p5 <= 431
 R319: - 62 x2,5_62 - p2 + p5 >= 0
 R320: 378 x2,5_62 - p2 + p5 <= 440
 R321: - 68 x2,5_68 - p2 + p5 >= 0
 R322: 378 x2,5_68 - p2 + p5 <= 446
 R323: - 72 x2,5_72 - p2 + p5 >= 0
 R324: 378 x2,5_72 - p2 + p5 <= 450
 R325: p2 - p6 <= -1
 R326: - 4 x2,6_4 - p2 + p6 >= 0
 R327: 378 x2,6_4 - p2 + p6 <= 382
 R328: - 6 x2,6_6 - p2 + p6 >= 0
 R329: 378 x2,6_6 - p2 + p6 <= 384
 R330: - 8 x2,6_8 - p2 + p6 >= 0
 R331: 378 x2,6_8 - p2 + p6 <= 386
 R332: - 25 x2,6_25 - p2 + p6 >= 0
 R333: 378 x2,6_25 - p2 + p6 <= 403
 R334: - 33 x2,6_33 - p2 + p6 >= 0
 R335: 378 x2,6_33 - p2 + p6 <= 411
 R336: - 47 x2,6_47 - p2 + p6 >= 0
 R337: 378 x2,6_47 - p2 + p6 <= 425
 R338: - 53 x2,6_53 - p2 + p6 >= 0
 R339: 378 x2,6_53 - p2 + p6 <= 431
 R340: - 62 x2,6_62 - p2 + p6 >= 0
 R341: 378 x2,6_62 - p2 + p6 <= 440
 R342: - 68 x2,6_68 - p2 + p6 >= 0
 R343: 378 x2,6_68 - p2 + p6 <= 446
 R344: - 72 x2,6_72 - p2 + p6 >= 0
 R345: 378 x2,6_72 - p2 + p6 <= 450
 R346: p3 - p4 <= -1
 R347: - 4 x3,4_4 - p3 + p4 >= 0
 R348: 378 x3,4_4 - p3 + p4 <= 382
 R349: - 6 x3,4_6 - p3 + p4 >= 0
 R350: 378 x3,4_6 - p3 + p4 <= 384
 R351: - 8 x3,4_8 - p3 + p4 >= 0
 R352: 378 x3,4_8 - p3 + p4 <= 386
 R353: - 25 x3,4_25 - p3 + p4 >= 0
 R354: 378 x3,4_25 - p3 + p4 <= 403
 R355: - 33 x3,4_33 - p3 + p4 >= 0
 R356: 378 x3,4_33 - p3 + p4 <= 411
 R357: - 47 x3,4_47 - p3 + p4 >= 0
 R358: 378 x3,4_47 - p3 + p4 <= 425
 R359: - 53 x3,4_53 - p3 + p4 >= 0
 R360: 378 x3,4_53 - p3 + p4 <= 431
 R361: - 62 x3,4_62 - p3 + p4 >= 0
 R362: 378 x3,4_62 - p3 + p4 <= 440
 R363: - 68 x3,4_68 - p3 + p4 >= 0
 R364: 378 x3,4_68 - p3 + p4 <= 446
 R365: - 72 x3,4_72 - p3 + p4 >= 0
 R366: 378 x3,4_72 - p3 + p4 <= 450
 R367: p3 - p5 <= -1
 R368: - 4 x3,5_4 - p3 + p5 >= 0
 R369: 378 x3,5_4 - p3 + p5 <= 382
 R370: - 6 x3,5_6 - p3 + p5 >= 0
 R371: 378 x3,5_6 - p3 + p5 <= 384
 R372: - 8 x3,5_8 - p3 + p5 >= 0
 R373: 378 x3,5_8 - p3 + p5 <= 386
 R374: - 25 x3,5_25 - p3 + p5 >= 0
 R375: 378 x3,5_25 - p3 + p5 <= 403
 R376: - 33 x3,5_33 - p3 + p5 >= 0
 R377: 378 x3,5_33 - p3 + p5 <= 411
 R378: - 47 x3,5_47 - p3 + p5 >= 0
 R379: 378 x3,5_47 - p3 + p5 <= 425
 R380: - 53 x3,5_53 - p3 + p5 >= 0
 R381: 378 x3,5_53 - p3 + p5 <= 431
 R382: - 62 x3,5_62 - p3 + p5 >= 0
 R383: 378 x3,5_62 - p3 + p5 <= 440
 R384: - 68 x3,5_68 - p3 + p5 >= 0
 R385: 378 x3,5_68 - p3 + p5 <= 446
 R386: - 72 x3,5_72 - p3 + p5 >= 0
 R387: 378 x3,5_72 - p3 + p5 <= 450
 R388: p3 - p6 <= -1
 R389: - 4 x3,6_4 - p3 + p6 >= 0
 R390: 378 x3,6_4 - p3 + p6 <= 382
 R391: - 6 x3,6_6 - p3 + p6 >= 0
 R392: 378 x3,6_6 - p3 + p6 <= 384
 R393: - 8 x3,6_8 - p3 + p6 >= 0
 R394: 378 x3,6_8 - p3 + p6 <= 386
 R395: - 25 x3,6_25 - p3 + p6 >= 0
 R396: 378 x3,6_25 - p3 + p6 <= 403
 R397: - 33 x3,6_33 - p3 + p6 >= 0
 R398: 378 x3,6_33 - p3 + p6 <= 411
 R399: - 47 x3,6_47 - p3 + p6 >= 0
 R400: 378 x3,6_47 - p3 + p6 <= 425
 R401: - 53 x3,6_53 - p3 + p6 >= 0
 R402: 378 x3,6_53 - p3 + p6 <= 431
 R403: - 62 x3,6_62 - p3 + p6 >= 0
 R404: 378 x3,6_62 - p3 + p6 <= 440
 R405: - 68 x3,6_68 - p3 + p6 >= 0
 R406: 378 x3,6_68 - p3 + p6 <= 446
 R407: - 72 x3,6_72 - p3 + p6 >= 0
 R408: 378 x3,6_72 - p3 + p6 <= 450
 R409: p4 - p5 <= -1
 R410: - 4 x4,5_4 - p4 + p5 >= 0
 R411: 378 x4,5_4 - p4 + p5 <= 382
 R412: - 6 x4,5_6 - p4 + p5 >= 0
 R413: 378 x4,5_6 - p4 + p5 <= 384
 R414: - 8 x4,5_8 - p4 + p5 >= 0
 R415: 378 x4,5_8 - p4 + p5 <= 386
 R416: - 25 x4,5_25 - p4 + p5 >= 0
 R417: 378 x4,5_25 - p4 + p5 <= 403
 R418: - 33 x4,5_33 - p4 + p5 >= 0
 R419: 378 x4,5_33 - p4 + p5 <= 411
 R420: - 47 x4,5_47 - p4 + p5 >= 0
 R421: 378 x4,5_47 - p4 + p5 <= 425
 R422: - 53 x4,5_53 - p4 + p5 >= 0
 R423: 378 x4,5_53 - p4 + p5 <= 431
 R424: - 62 x4,5_62 - p4 + p5 >= 0
 R425: 378 x4,5_62 - p4 + p5 <= 440
 R426: - 68 x4,5_68 - p4 + p5 >= 0
 R427: 378 x4,5_68 - p4 + p5 <= 446
 R428: - 72 x4,5_72 - p4 + p5 >= 0
 R429: 378 x4,5_72 - p4 + p5 <= 450
 R430: p4 - p6 <= -1
 R431: - 4 x4,6_4 - p4 + p6 >= 0
 R432: 378 x4,6_4 - p4 + p6 <= 382
 R433: - 6 x4,6_6 - p4 + p6 >= 0
 R434: 378 x4,6_6 - p4 + p6 <= 384
 R435: - 8 x4,6_8 - p4 + p6 >= 0
 R436: 378 x4,6_8 - p4 + p6 <= 386
 R437: - 25 x4,6_25 - p4 + p6 >= 0
 R438: 378 x4,6_25 - p4 + p6 <= 403
 R439: - 33 x4,6_33 - p4 + p6 >= 0
 R440: 378 x4,6_33 - p4 + p6 <= 411
 R441: - 47 x4,6_47 - p4 + p6 >= 0
 R442: 378 x4,6_47 - p4 + p6 <= 425
 R443: - 53 x4,6_53 - p4 + p6 >= 0
 R444: 378 x4,6_53 - p4 + p6 <= 431
 R445: - 62 x4,6_62 - p4 + p6 >= 0
 R446: 378 x4,6_62 - p4 + p6 <= 440
 R447: - 68 x4,6_68 - p4 + p6 >= 0
 R448: 378 x4,6_68 - p4 + p6 <= 446
 R449: - 72 x4,6_72 - p4 + p6 >= 0
 R450: 378 x4,6_72 - p4 + p6 <= 450
 R451: p5 - p6 <= -1
 R452: - 4 x5,6_4 - p5 + p6 >= 0
 R453: 378 x5,6_4 - p5 + p6 <= 382
 R454: - 6 x5,6_6 - p5 + p6 >= 0
 R455: 378 x5,6_6 - p5 + p6 <= 384
 R456: - 8 x5,6_8 - p5 + p6 >= 0
 R457: 378 x5,6_8 - p5 + p6 <= 386
 R458: - 25 x5,6_25 - p5 + p6 >= 0
 R459: 378 x5,6_25 - p5 + p6 <= 403
 R460: - 33 x5,6_33 - p5 + p6 >= 0
 R461: 378 x5,6_33 - p5 + p6 <= 411
 R462: - 47 x5,6_47 - p5 + p6 >= 0
 R463: 378 x5,6_47 - p5 + p6 <= 425
 R464: - 53 x5,6_53 - p5 + p6 >= 0
 R465: 378 x5,6_53 - p5 + p6 <= 431
 R466: - 62 x5,6_62 - p5 + p6 >= 0
 R467: 378 x5,6_62 - p5 + p6 <= 440
 R468: - 68 x5,6_68 - p5 + p6 >= 0
 R469: 378 x5,6_68 - p5 + p6 <= 446
 R470: - 72 x5,6_72 - p5 + p6 >= 0
 R471: 378 x5,6_72 - p5 + p6 <= 450
Bounds
Binaries
 x0,1_4 x0,1_6 x0,1_8 x0,1_25 x0,1_33 x0,1_47 x0,1_53 x0,1_62 x0,1_68
 x0,1_72 x0,2_4 x0,2_6 x0,2_8 x0,2_25 x0,2_33 x0,2_47 x0,2_53 x0,2_62
 x0,2_68 x0,2_72 x0,3_4 x0,3_6 x0,3_8 x0,3_25 x0,3_33 x0,3_47 x0,3_53
 x0,3_62 x0,3_68 x0,3_72 x0,4_4 x0,4_6 x0,4_8 x0,4_25 x0,4_33 x0,4_47
 x0,4_53 x0,4_62 x0,4_68 x0,4_72 x0,5_4 x0,5_6 x0,5_8 x0,5_25 x0,5_33
 x0,5_47 x0,5_53 x0,5_62 x0,5_68 x0,5_72 x0,6_4 x0,6_6 x0,6_8 x0,6_25
 x0,6_33 x0,6_47 x0,6_53 x0,6_62 x0,6_68 x0,6_72 x1,2_4 x1,2_6 x1,2_8
 x1,2_25 x1,2_33 x1,2_47 x1,2_53 x1,2_62 x1,2_68 x1,2_72 x1,3_4 x1,3_6
 x1,3_8 x1,3_25 x1,3_33 x1,3_47 x1,3_53 x1,3_62 x1,3_68 x1,3_72 x1,4_4
 x1,4_6 x1,4_8 x1,4_25 x1,4_33 x1,4_47 x1,4_53 x1,4_62 x1,4_68 x1,4_72
 x1,5_4 x1,5_6 x1,5_8 x1,5_25 x1,5_33 x1,5_47 x1,5_53 x1,5_62 x1,5_68
 x1,5_72 x1,6_4 x1,6_6 x1,6_8 x1,6_25 x1,6_33 x1,6_47 x1,6_53 x1,6_62
 x1,6_68 x1,6_72 x2,3_4 x2,3_6 x2,3_8 x2,3_25 x2,3_33 x2,3_47 x2,3_53
 x2,3_62 x2,3_68 x2,3_72 x2,4_4 x2,4_6 x2,4_8 x2,4_25 x2,4_33 x2,4_47
 x2,4_53 x2,4_62 x2,4_68 x2,4_72 x2,5_4 x2,5_6 x2,5_8 x2,5_25 x2,5_33
 x2,5_47 x2,5_53 x2,5_62 x2,5_68 x2,5_72 x2,6_4 x2,6_6 x2,6_8 x2,6_25
 x2,6_33 x2,6_47 x2,6_53 x2,6_62 x2,6_68 x2,6_72 x3,4_4 x3,4_6 x3,4_8
 x3,4_25 x3,4_33 x3,4_47 x3,4_53 x3,4_62 x3,4_68 x3,4_72 x3,5_4 x3,5_6
 x3,5_8 x3,5_25 x3,5_33 x3,5_47 x3,5_53 x3,5_62 x3,5_68 x3,5_72 x3,6_4
 x3,6_6 x3,6_8 x3,6_25 x3,6_33 x3,6_47 x3,6_53 x3,6_62 x3,6_68 x3,6_72
 x4,5_4 x4,5_6 x4,5_8 x4,5_25 x4,5_33 x4,5_47 x4,5_53 x4,5_62 x4,5_68
 x4,5_72 x4,6_4 x4,6_6 x4,6_8 x4,6_25 x4,6_33 x4,6_47 x4,6_53 x4,6_62
 x4,6_68 x4,6_72 x5,6_4 x5,6_6 x5,6_8 x5,6_25 x5,6_33 x5,6_47 x5,6_53
 x5,6_62 x5,6_68 x5,6_72
Generals
 p0 p1 p2 p3 p4 p5 p6
End
