logs/drand/max/drand-10-075-0.log

Gurobi 8.1.1 (win64) logging started 11/23/19 15:27:25

Changed value of parameter LogFile to logs/drand/max/drand-10-075-0.log
   Prev: gurobi.log  Default: 
Changed value of parameter LogToConsole to 0
   Prev: 1  Min: 0  Max: 1  Default: 1
Changed value of parameter TimeLimit to 3600.0
   Prev: 1e+100  Min: 0.0  Max: 1e+100  Default: 1e+100
Optimize a model with 802 rows, 369 columns and 2952 nonzeros
Variable types: 0 continuous, 369 integer (360 binary)
Coefficient statistics:
  Matrix range     [1e+00, 4e+02]
  Objective range  [1e+00, 1e+00]
  Bounds range     [1e+00, 1e+00]
  RHS range        [1e+00, 5e+02]
Found heuristic solution: objective 3.0000000
Presolve time: 0.01s
Presolved: 802 rows, 369 columns, 2952 nonzeros
Variable types: 0 continuous, 369 integer (360 binary)

Root relaxation: objective 1.000000e+01, 76 iterations, 0.00 seconds

    Nodes    |    Current Node    |     Objective Bounds      |     Work
 Expl Unexpl |  Obj  Depth IntInf | Incumbent    BestBd   Gap | It/Node Time

     0     0   10.00000    0    9    3.00000   10.00000   233%     -    0s
H    0     0                       8.0000000   10.00000  25.0%     -    0s
     0     0   10.00000    0   29    8.00000   10.00000  25.0%     -    0s
     0     0   10.00000    0   26    8.00000   10.00000  25.0%     -    0s
H    0     0                      10.0000000   10.00000  0.00%     -    0s
     0     0   10.00000    0    2   10.00000   10.00000  0.00%     -    0s

Cutting planes:
  Gomory: 8
  MIR: 19
  StrongCG: 3

Explored 1 nodes (538 simplex iterations) in 0.10 seconds
Thread count was 4 (of 4 available processors)

Solution count 3: 10 8 3 

Optimal solution found (tolerance 1.00e-04)
Best objective 1.000000000000e+01, best bound 1.000000000000e+01, gap 0.0000%

Gurobi 8.1.1 (win64) logging started 11/23/19 15:27:25

Changed value of parameter LogFile to logs/drand/max/drand-10-075-0.log
   Prev: gurobi.log  Default: 
Changed value of parameter LogToConsole to 0
   Prev: 1  Min: 0  Max: 1  Default: 1
Changed value of parameter TimeLimit to 3600.0
   Prev: 1e+100  Min: 0.0  Max: 1e+100  Default: 1e+100
Optimize a model with 472 rows, 217 columns and 1722 nonzeros
Variable types: 0 continuous, 217 integer (210 binary)
Coefficient statistics:
  Matrix range     [1e+00, 4e+02]
  Objective range  [1e+00, 1e+00]
  Bounds range     [1e+00, 1e+00]
  RHS range        [1e+00, 5e+02]
Found heuristic solution: objective 2.0000000
Presolve time: 0.01s
Presolved: 472 rows, 217 columns, 1722 nonzeros
Variable types: 0 continuous, 217 integer (210 binary)

Root relaxation: objective 1.000000e+01, 100 iterations, 0.00 seconds

    Nodes    |    Current Node    |     Objective Bounds      |     Work
 Expl Unexpl |  Obj  Depth IntInf | Incumbent    BestBd   Gap | It/Node Time

H    0     0                      10.0000000  210.00000  2000%     -    0s
     0     0          -    0        10.00000   10.00000  0.00%     -    0s

Explored 0 nodes (285 simplex iterations) in 0.02 seconds
Thread count was 4 (of 4 available processors)

Solution count 2: 10 2 

Optimal solution found (tolerance 1.00e-04)
Best objective 1.000000000000e+01, best bound 1.000000000000e+01, gap 0.0000%

Gurobi 8.1.1 (win64) logging started 11/23/19 15:27:25

Changed value of parameter LogFile to logs/drand/max/drand-10-075-0.log
   Prev: gurobi.log  Default: 
Changed value of parameter LogToConsole to 0
   Prev: 1  Min: 0  Max: 1  Default: 1
Changed value of parameter TimeLimit to 3600.0
   Prev: 1e+100  Min: 0.0  Max: 1e+100  Default: 1e+100
Optimize a model with 340 rows, 156 columns and 1230 nonzeros
Variable types: 0 continuous, 156 integer (150 binary)
Coefficient statistics:
  Matrix range     [1e+00, 4e+02]
  Objective range  [1e+00, 1e+00]
  Bounds range     [1e+00, 1e+00]
  RHS range        [1e+00, 5e+02]
Found heuristic solution: objective 1.0000000
Presolve time: 0.00s
Presolved: 340 rows, 156 columns, 1230 nonzeros
Variable types: 0 continuous, 156 integer (150 binary)

Root relaxation: objective 1.000000e+01, 87 iterations, 0.00 seconds

    Nodes    |    Current Node    |     Objective Bounds      |     Work
 Expl Unexpl |  Obj  Depth IntInf | Incumbent    BestBd   Gap | It/Node Time

     0     0   10.00000    0    5    1.00000   10.00000   900%     -    0s
H    0     0                       8.0000000   10.00000  25.0%     -    0s
     0     0   10.00000    0   16    8.00000   10.00000  25.0%     -    0s
H    0     0                       9.0000000   10.00000  11.1%     -    0s
     0     0   10.00000    0    6    9.00000   10.00000  11.1%     -    0s
     0     0   10.00000    0    6    9.00000   10.00000  11.1%     -    0s
     0     0   10.00000    0    4    9.00000   10.00000  11.1%     -    0s
     0     0   10.00000    0    5    9.00000   10.00000  11.1%     -    0s
     0     0   10.00000    0    4    9.00000   10.00000  11.1%     -    0s
     0     0   10.00000    0    4    9.00000   10.00000  11.1%     -    0s
     0     0   10.00000    0    4    9.00000   10.00000  11.1%     -    0s
     0     2   10.00000    0    4    9.00000   10.00000  11.1%     -    0s
 31975  4529 infeasible   37         9.00000   10.00000  11.1%   7.8    5s
 65038  4691 infeasible   56         9.00000   10.00000  11.1%   8.8   10s
 103020  4240   10.00000   57    4    9.00000   10.00000  11.1%   8.9   15s
 145512  3086 infeasible   35         9.00000   10.00000  11.1%   8.5   20s
 181160  2182   10.00000   48    8    9.00000   10.00000  11.1%   8.5   25s
 217097   908 infeasible   52         9.00000   10.00000  11.1%   8.4   30s

Cutting planes:
  Gomory: 3
  MIR: 6
  StrongCG: 1
  Flow cover: 44
  Inf proof: 12
  Zero half: 7

Explored 234186 nodes (1965988 simplex iterations) in 32.14 seconds
Thread count was 4 (of 4 available processors)

Solution count 3: 9 8 1 

Optimal solution found (tolerance 1.00e-04)
Best objective 9.000000000000e+00, best bound 9.000000000000e+00, gap 0.0000%
